key = G;

melody = [
  Pitch(74), Pitch(74), Pitch(76), Pitch(79),
  Pitch(72), Pitch(71), Pitch(66), Pitch(69),
  Pitch(74), Pitch(74), Pitch(76), Pitch(79),
  Pitch(72), Pitch(71), Pitch(69), Pitch(67),
  Pitch(74), Pitch(76), Pitch(74), Pitch(69),
  Pitch(62), Pitch(72), Pitch(71), Pitch(67),
  Pitch(74), Pitch(74), Pitch(76), Pitch(79),
  Pitch(72), Pitch(71), Pitch(69), Pitch(67)
];

min_perfect = 0;
min_plagal = 0;
min_imperfect = 0;
min_interrupted = 0;

max_stationary = 2;
enforce_cadences = false;
